WARNING: for repeatability, setting FPU to use double precision
============================[ Problem Statistics ]=============================
|                                                                             |
|  Number of variables:            50                                         |
|  Number of clauses:             218                                         |
|  Parse time:                   0.00 s                                       |
|                                                                             |
============================[ Search Statistics ]==============================
| Conflicts |          ORIGINAL         |          LEARNT          | Progress |
|           |    Vars  Clauses Literals |    Limit  Clauses Lit/Cl |          |
===============================================================================
===============================================================================
restarts              : 1
conflicts             : 54             (285714 /sec)
decisions             : 61             (0.00 % random) (322751 /sec)
propagations          : 799            (4227513 /sec)
conflict literals     : 186            (18.78 % deleted)
Memory used           : 20.00 MB
CPU time              : 0.000189 s

UNSATISFIABLE
